Temps avant resolution glpk : 10.540000
Writing problem data to `Does_androids_dream_of_electric_sheep.lp'...
262903 lines were written
GLPK Simplex Optimizer, v4.45
24 rows, 62714 columns, 318896 non-zeros
      0: obj =   0.000000000e+00  infeas =  2.400e+01 (24)
*    25: obj =   6.750761905e+03  infeas =  2.220e-16 (2)
*   100: obj =   3.896850000e+03  infeas =  3.512e-16 (0)
OPTIMAL SOLUTION FOUND
GLPK Integer Optimizer, v4.45
24 rows, 62714 columns, 318896 non-zeros
62714 integer variables, all of which are binary
Integer optimization begins...
+   100: mip =     not found yet >=              -inf        (1; 0)
+   107: mip =     not found yet >=   3.901000000e+03        (4; 0)
+   117: mip =     not found yet >=   3.908000000e+03        (7; 0)
+   125: mip =     not found yet >=   3.908000000e+03        (11; 0)
+   147: >>>>>   4.135000000e+03 >=   3.908000000e+03   5.5% (12; 0)
+   160: mip =   4.135000000e+03 >=   3.916000000e+03   5.3% (14; 1)
+   169: mip =   4.135000000e+03 >=   3.923000000e+03   5.1% (17; 1)
+   175: mip =   4.135000000e+03 >=   3.923000000e+03   5.1% (20; 1)
+   180: mip =   4.135000000e+03 >=   3.923000000e+03   5.1% (23; 1)
+   201: mip =   4.135000000e+03 >=   3.923000000e+03   5.1% (26; 1)
+   231: mip =   4.135000000e+03 >=   3.923000000e+03   5.1% (29; 1)
Time used: 60.1 secs.  Memory used: 27.9 Mb.
+   239: mip =   4.135000000e+03 >=   3.923000000e+03   5.1% (32; 1)
+   263: mip =   4.135000000e+03 >=   3.923000000e+03   5.1% (33; 2)
+   285: mip =   4.135000000e+03 >=   3.929000000e+03   5.0% (33; 4)
+   321: mip =   4.135000000e+03 >=   3.949000000e+03   4.5% (29; 8)
+   353: mip =   4.135000000e+03 >=   3.961000000e+03   4.2% (27; 11)
+   365: >>>>>   4.099000000e+03 >=   3.961000000e+03   3.4% (28; 11)
+   391: mip =   4.099000000e+03 >=   3.966000000e+03   3.2% (23; 16)
+   425: mip =   4.099000000e+03 >=   3.971000000e+03   3.1% (21; 19)
+   428: mip =   4.099000000e+03 >=   3.984000000e+03   2.8% (20; 21)
+   435: mip =   4.099000000e+03 >=   3.989000000e+03   2.7% (23; 21)
+   452: mip =   4.099000000e+03 >=   3.989000000e+03   2.7% (25; 22)
+   471: mip =   4.099000000e+03 >=   3.989000000e+03   2.7% (27; 22)
Time used: 121.3 secs.  Memory used: 30.2 Mb.
+   495: mip =   4.099000000e+03 >=   3.994000000e+03   2.6% (24; 26)
+   506: mip =   4.099000000e+03 >=   3.999000000e+03   2.4% (24; 28)
+   515: mip =   4.099000000e+03 >=   4.002000000e+03   2.4% (26; 29)
+   518: mip =   4.099000000e+03 >=   4.002000000e+03   2.4% (29; 29)
+   522: mip =   4.099000000e+03 >=   4.002000000e+03   2.4% (33; 29)
+   527: mip =   4.099000000e+03 >=   4.002000000e+03   2.4% (35; 29)
+   545: mip =   4.099000000e+03 >=   4.002000000e+03   2.4% (39; 29)
+   550: mip =   4.099000000e+03 >=   4.002000000e+03   2.4% (42; 29)
+   561: mip =   4.099000000e+03 >=   4.002000000e+03   2.4% (45; 29)
+   570: mip =   4.099000000e+03 >=   4.002000000e+03   2.4% (49; 29)
Time used: 181.4 secs.  Memory used: 30.2 Mb.
+   589: mip =   4.099000000e+03 >=   4.002000000e+03   2.4% (50; 30)
+   606: mip =   4.099000000e+03 >=   4.006000000e+03   2.3% (45; 35)
+   620: mip =   4.099000000e+03 >=   4.006000000e+03   2.3% (48; 35)
+   631: mip =   4.099000000e+03 >=   4.006000000e+03   2.3% (52; 35)
+   640: mip =   4.099000000e+03 >=   4.006000000e+03   2.3% (56; 35)
+   654: mip =   4.099000000e+03 >=   4.006000000e+03   2.3% (60; 35)
+   662: mip =   4.099000000e+03 >=   4.006000000e+03   2.3% (64; 35)
+   675: mip =   4.099000000e+03 >=   4.006000000e+03   2.3% (64; 36)
+   698: mip =   4.099000000e+03 >=   4.011000000e+03   2.1% (64; 38)
+   716: >>>>>   4.027000000e+03 >=   4.014000000e+03   0.3% (61; 41)
Time used: 241.6 secs.  Memory used: 30.2 Mb.
+   724: mip =   4.027000000e+03 >=   4.017000000e+03   0.2% (10; 133)
+   733: mip =   4.027000000e+03 >=   4.022000000e+03   0.1% (6; 149)
+   734: >>>>>   4.025000000e+03 >=   4.022000000e+03 < 0.1% (5; 150)
+   736: mip =   4.025000000e+03 >=   4.022000000e+03 < 0.1% (1; 173)
+   736: mip =   4.025000000e+03 >=     tree is empty   0.0% (0; 207)
INTEGER OPTIMAL SOLUTION FOUND
coût total = 4025.000000
Les tournées suivantes sont choisies :
8, 19, 22, 21, 
Pour un coût de 789
16, 1, 17, 12, 2, 
Pour un coût de 751
10, 5, 4, 7, 
Pour un coût de 816
20, 18, 14, 11, 24, 
Pour un coût de 753
15, 6, 13, 9, 3, 23, 
Pour un coût de 916
Temps : 90.909000
